CMPL model generation - running

CMPL version: 1.11.0
Authors: Thomas Schleiff, Mike Steglich
Distributed under the GPLv3 

create model instance ...
write model instance ...
CMPL model generation - finished

Solver - running


Welcome to IBM(R) ILOG(R) CPLEX(R) Interactive Optimizer 12.7.1.0
  with Simplex, Mixed Integer & Barrier Optimizers
5725-A06 5725-A29 5724-Y48 5724-Y49 5724-Y54 5724-Y55 5655-Y21
Copyright IBM Corp. 1988, 2017.  All Rights Reserved.

Type 'help' for a list of available commands.
Type 'help' followed by a command name for more
information on commands.

CPLEX> Specified objective sense: MINIMIZE
Selected objective  name:  line[1]
Selected RHS        name:  RHS
Selected bound      name:  BOUND
Problem '/tmp/cmpl.T23398.mps' read.
Read time = 0.05 sec. (8.16 ticks)
CPLEX> CPXPARAM_Read_APIEncoding                        "UTF-8"
Tried aggregator 3 times.
MIP Presolve eliminated 19313 rows and 30843 columns.
MIP Presolve modified 340 coefficients.
Aggregator did 589 substitutions.
Reduced MIP has 2453 rows, 3161 columns, and 9251 nonzeros.
Reduced MIP has 2993 binaries, 0 generals, 0 SOSs, and 0 indicators.
Presolve time = 0.05 sec. (40.19 ticks)
Found incumbent of value 395.201625 after 0.06 sec. (52.30 ticks)
Probing fixed 4 vars, tightened 0 bounds.
Probing time = 0.01 sec. (3.99 ticks)
Tried aggregator 1 time.
MIP Presolve eliminated 0 rows and 4 columns.
MIP Presolve modified 14 coefficients.
Reduced MIP has 2453 rows, 3157 columns, and 9243 nonzeros.
Reduced MIP has 3157 binaries, 0 generals, 0 SOSs, and 0 indicators.
Presolve time = 0.01 sec. (7.87 ticks)
Probing time = 0.01 sec. (2.66 ticks)
Clique table members: 5164.
MIP emphasis: balance optimality and feasibility.
MIP search method: dynamic search.
Parallel mode: none, using 1 thread.
Root relaxation solution time = 0.00 sec. (4.16 ticks)

        Nodes                                         Cuts/
   Node  Left     Objective  IInf  Best Integer    Best Bound    ItCnt     Gap

*     0+    0                          395.2016      -46.3900           111.74%
      0     0        6.9511    23      395.2016        6.9511       57   98.24%
*     0+    0                           56.5395        6.9511            87.71%
*     0+    0                            7.6083        6.9511             8.64%
      0     0        cutoff              7.6083                     57    0.00%
Elapsed time = 0.11 sec. (84.44 ticks, tree = 0.01 MB, solutions = 3)

Root node processing (before b&c):
  Real time             =    0.12 sec. (85.93 ticks)
Sequential b&c:
  Real time             =    0.00 sec. (0.00 ticks)
                          ------------
Total (root+branch&cut) =    0.12 sec. (85.93 ticks)

Solution pool: 3 solutions saved.

MIP - Integer optimal solution:  Objective =  7.6082860000e+00
Solution time =    0.12 sec.  Iterations = 57  Nodes = 0
Deterministic time = 86.03 ticks  (734.37 ticks/sec)

CPLEX> Incumbent solution written to file '/tmp/cmpl.T23398.gsol'.
CPLEX> 
CMPL: Time used for model generation: 0 seconds
CMPL: Time used for solving the model: 1 seconds


Solution written to ASCII file: results/output_generated_conf_0/2017-08-07-4/fair-nonlinear.sol

Solver - finished
